p tw 81 810
1 3
1 4
1 5
1 8
1 12
1 14
1 15
1 18
1 26
1 27
1 29
1 30
1 31
1 41
1 55
1 56
1 59
1 60
1 61
1 71
2 81
2 4
2 6
2 9
2 11
2 14
2 16
2 19
2 25
2 27
2 28
2 30
2 32
2 42
2 54
2 56
2 58
2 60
2 62
2 72
13 81
13 3
13 7
13 10
13 11
13 12
13 17
13 20
13 25
13 26
13 28
13 29
13 33
13 43
13 54
13 55
13 58
13 59
13 63
13 73
24 81
24 6
24 7
24 8
24 11
24 16
24 17
24 18
24 22
24 23
24 29
24 30
24 34
24 44
24 52
24 53
24 59
24 60
24 64
24 74
35 3
35 5
35 7
35 9
35 12
35 15
35 17
35 19
35 21
35 23
35 28
35 30
35 36
35 45
35 51
35 53
35 58
35 60
35 65
35 75
46 4
46 5
46 6
46 10
46 14
46 15
46 16
46 20
46 21
46 22
46 28
46 29
46 37
46 47
46 51
46 52
46 58
46 59
46 66
46 76
57 81
57 5
57 9
57 10
57 11
57 15
57 19
57 20
57 22
57 23
57 26
57 27
57 38
57 48
57 52
57 53
57 55
57 56
57 67
57 77
68 3
68 6
68 8
68 10
68 12
68 16
68 18
68 20
68 21
68 23
68 25
68 27
68 39
68 49
68 51
68 53
68 54
68 56
68 69
68 78
79 4
79 7
79 8
79 9
79 14
79 17
79 18
79 19
79 21
79 22
79 25
79 26
79 40
79 50
79 51
79 52
79 54
79 55
79 70
79 80
81 12
81 14
81 15
81 18
81 21
81 36
81 37
81 39
81 40
81 41
81 51
81 65
81 66
81 69
81 70
81 71
3 11
3 14
3 16
3 19
3 22
3 34
3 37
3 38
3 40
3 42
3 52
3 64
3 66
3 67
3 70
3 72
4 11
4 12
4 17
4 20
4 23
4 34
4 36
4 38
4 39
4 43
4 53
4 64
4 65
4 67
4 69
4 73
5 11
5 16
5 17
5 18
5 25
5 32
5 33
5 39
5 40
5 44
5 54
5 62
5 63
5 69
5 70
5 74
6 12
6 15
6 17
6 19
6 26
6 31
6 33
6 38
6 40
6 45
6 55
6 61
6 63
6 67
6 70
6 75
7 14
7 15
7 16
7 20
7 27
7 31
7 32
7 38
7 39
7 47
7 56
7 61
7 62
7 67
7 69
7 76
8 11
8 15
8 19
8 20
8 28
8 32
8 33
8 36
8 37
8 48
8 58
8 62
8 63
8 65
8 66
8 77
9 12
9 16
9 18
9 20
9 29
9 31
9 33
9 34
9 37
9 49
9 59
9 61
9 63
9 64
9 66
9 78
10 14
10 17
10 18
10 19
10 30
10 31
10 32
10 34
10 36
10 50
10 60
10 61
10 62
10 64
10 65
10 80
11 21
11 31
11 45
11 47
11 49
11 50
11 51
11 61
11 75
11 76
11 78
11 80
12 22
12 32
12 44
12 47
12 48
12 50
12 52
12 62
12 74
12 76
12 77
12 80
14 23
14 33
14 44
14 45
14 48
14 49
14 53
14 63
14 74
14 75
14 77
14 78
15 25
15 34
15 42
15 43
15 49
15 50
15 54
15 64
15 72
15 73
15 78
15 80
16 26
16 36
16 41
16 43
16 48
16 50
16 55
16 65
16 71
16 73
16 77
16 80
17 27
17 37
17 41
17 42
17 48
17 49
17 56
17 66
17 71
17 72
17 77
17 78
18 28
18 38
18 42
18 43
18 45
18 47
18 58
18 67
18 72
18 73
18 75
18 76
19 29
19 39
19 41
19 43
19 44
19 47
19 59
19 69
19 71
19 73
19 74
19 76
20 30
20 40
20 41
20 42
20 44
20 45
20 60
20 70
20 71
20 72
20 74
20 75
21 32
21 33
21 34
21 38
21 42
21 43
21 44
21 48
21 55
21 56
21 59
21 60
21 61
21 71
22 31
22 33
22 36
22 39
22 41
22 43
22 45
22 49
22 54
22 56
22 58
22 60
22 62
22 72
23 31
23 32
23 37
23 40
23 41
23 42
23 47
23 50
23 54
23 55
23 58
23 59
23 63
23 73
25 31
25 36
25 37
25 38
25 41
25 45
25 47
25 48
25 52
25 53
25 59
25 60
25 64
25 74
26 32
26 34
26 37
26 39
26 42
26 44
26 47
26 49
26 51
26 53
26 58
26 60
26 65
26 75
27 33
27 34
27 36
27 40
27 43
27 44
27 45
27 50
27 51
27 52
27 58
27 59
27 66
27 76
28 31
28 34
28 39
28 40
28 41
28 44
28 49
28 50
28 52
28 53
28 55
28 56
28 67
28 77
29 32
29 36
29 38
29 40
29 42
29 45
29 48
29 50
29 51
29 53
29 54
29 56
29 69
29 78
30 33
30 37
30 38
30 39
30 43
30 47
30 48
30 49
30 51
30 52
30 54
30 55
30 70
30 80
31 42
31 43
31 44
31 48
31 51
31 65
31 66
31 69
31 70
31 71
32 41
32 43
32 45
32 49
32 52
32 64
32 66
32 67
32 70
32 72
33 41
33 42
33 47
33 50
33 53
33 64
33 65
33 67
33 69
33 73
34 41
34 45
34 47
34 48
34 54
34 62
34 63
34 69
34 70
34 74
36 42
36 44
36 47
36 49
36 55
36 61
36 63
36 67
36 70
36 75
37 43
37 44
37 45
37 50
37 56
37 61
37 62
37 67
37 69
37 76
38 41
38 44
38 49
38 50
38 58
38 62
38 63
38 65
38 66
38 77
39 42
39 45
39 48
39 50
39 59
39 61
39 63
39 64
39 66
39 78
40 43
40 47
40 48
40 49
40 60
40 61
40 62
40 64
40 65
40 80
41 51
41 61
41 75
41 76
41 78
41 80
42 52
42 62
42 74
42 76
42 77
42 80
43 53
43 63
43 74
43 75
43 77
43 78
44 54
44 64
44 72
44 73
44 78
44 80
45 55
45 65
45 71
45 73
45 77
45 80
47 56
47 66
47 71
47 72
47 77
47 78
48 58
48 67
48 72
48 73
48 75
48 76
49 59
49 69
49 71
49 73
49 74
49 76
50 60
50 70
50 71
50 72
50 74
50 75
51 62
51 63
51 64
51 67
51 72
51 73
51 74
51 77
52 61
52 63
52 65
52 69
52 71
52 73
52 75
52 78
53 61
53 62
53 66
53 70
53 71
53 72
53 76
53 80
54 61
54 65
54 66
54 67
54 71
54 75
54 76
54 77
55 62
55 64
55 66
55 69
55 72
55 74
55 76
55 78
56 63
56 64
56 65
56 70
56 73
56 74
56 75
56 80
58 61
58 64
58 69
58 70
58 71
58 74
58 78
58 80
59 62
59 65
59 67
59 70
59 72
59 75
59 77
59 80
60 63
60 66
60 67
60 69
60 73
60 76
60 77
60 78
61 72
61 73
61 74
61 77
62 71
62 73
62 75
62 78
63 71
63 72
63 76
63 80
64 71
64 75
64 76
64 77
65 72
65 74
65 76
65 78
66 73
66 74
66 75
66 80
67 71
67 74
67 78
67 80
69 72
69 75
69 77
69 80
70 73
70 76
70 77
70 78
